# 2D graphene block simulation
boundary    p p p
units       metal
atom_style  atomic

# geometry
read_data data.pos
mass 1 12.01

neighbor 2 bin
neigh_modify delay 5

pair_style  	tersoff
pair_coeff   	* * BNC.tersoff C



timestep .5e-3

# execution
dump lala all custom 10000 dump.force fx fy fz
dump_modify lala element C 
dump kala all custom 10000 dump.lammpstrj id type xs ys zs
dump_modify kala element C 
run 	 1
