graphene
   1.0    
    2.459500 0.000000 0.000000 
1.229750 2.129989 0.000000 
0.000000 0.000000 24.595000 
   2
Direct
0.000000 0.000000 0.00
0.333333 0.333333 0.000

